; benchmark generated from python API
(set-info :status unknown)
(declare-datatypes ((RealState 0)) (((RMk1 (rval1 Real)) (RMk2 (rval2 Real)))))
 (assert
 (forall ((|v17:0| Real) )(forall ((|v16:1| Real) )(forall ((|v15:2| Real) )(forall ((|v14:3| Real) )(forall ((|v13:4| Real) )(forall ((|v12:5| Real) )(exists ((|v11:6_st| RealState) (val!10116 Real) )(exists ((|v10:7_st| RealState) (val!10117 Real) )(exists ((|v9:8_st| RealState) (val!10118 Real) )(exists ((|v8:9_st| RealState) (val!10119 Real) )(exists ((|v7:10_st| RealState) (val!10120 Real) )(exists ((|v6:11_st| RealState) (val!10121 Real) )(forall ((|v5:12| Real) )(forall ((|v4:13| Real) )(forall ((|v3:14| Real) )(forall ((|v2:15| Real) )(forall ((|v1:16| Real) )(forall ((|v0:17| Real) )(let ((?x4592 (- 4.0)))
 (let ((?x8301 (* ?x4592 |v0:17|)))
 (let ((?x5405 (* 14.0 |v14:3|)))
 (let ((?x4082 (+ (+ (* 13.0 |v14:3|) (* 10.0 (rval2 |v6:11_st|))) (* ?x4592 (rval2 |v10:7_st|)))))
 (let ((?x638 (+ (+ (+ (+ ?x4082 ?x5405) ?x8301) (* 6.0 (rval2 |v8:9_st|))) (* 5.0 |v12:5|))))
 (let ((?x5786 (- 18.0)))
 (let ((?x2845 (* ?x5786 |v5:12|)))
 (let ((?x5045 (* 10.0 |v15:2|)))
 (let ((?x1761 (+ (+ (+ (* 9.0 (rval2 |v11:6_st|)) (* 16.0 |v1:16|)) (rval2 |v11:6_st|)) |v13:4|)))
 (let ((?x4383 (rval2 |v6:11_st|)))
 (let ((?x9261 (* 10.0 ?x4383)))
 (let ((?x2832 (* 2.0 |v4:13|)))
 (let ((?x7876 (- 9.0)))
 (let ((?x8300 (* ?x7876 |v3:14|)))
 (let ((?x6116 (+ (+ (+ (* 17.0 |v16:1|) (* (- 1.0) |v12:5|)) (* 13.0 |v0:17|)) (* (- 10.0) (rval2 |v10:7_st|)))))
 (let ((?x9214 (rval2 |v8:9_st|)))
 (let ((?x1508 (* 18.0 ?x9214)))
 (let ((?x7878 (- 13.0)))
 (let ((?x5519 (* ?x7878 |v0:17|)))
 (let ((?x7091 (- 6.0)))
 (let ((?x3040 (* ?x7091 ?x4383)))
 (let ((?x5663 (+ (+ (+ (* (- 19.0) |v1:16|) (* 9.0 |v5:12|)) (* 15.0 |v16:1|)) (* 10.0 (rval2 |v9:8_st|)))))
 (let (($x7934 (or (<= (+ (+ (+ ?x5663 ?x3040) ?x5519) ?x1508) ?x5786) (<= (+ (+ (+ ?x6116 ?x8300) ?x2832) ?x9261) 2.0))))
 (let ((?x7330 (* ?x7091 |v3:14|)))
 (let ((?x6582 (* 7.0 |v4:13|)))
 (let ((?x7925 (- 3.0)))
 (let ((?x4670 (* ?x7925 ?x9214)))
 (let ((?x2890 (+ (+ (+ (+ (* 8.0 |v4:13|) (* 4.0 |v1:16|)) (* 4.0 |v17:0|)) ?x4670) (* (- 17.0) |v13:4|))))
 (let ((?x4232 (- 15.0)))
 (let ((?x4488 (* ?x4232 ?x4383)))
 (let ((?x7068 (* ?x7876 |v0:17|)))
 (let ((?x1115 (+ (+ (+ (* ?x7925 |v3:14|) (* (- 11.0) (rval2 |v10:7_st|))) (* ?x7876 ?x9214)) (* 14.0 ?x4383))))
 (let (($x2038 (and (<= (+ (+ (+ ?x1115 ?x7068) (* 5.0 (rval2 |v10:7_st|))) ?x4488) 12.0) (<= (+ (+ ?x2890 ?x6582) ?x7330) 17.0))))
 (let ((?x9012 (* 6.0 |v2:15|)))
 (let ((?x3898 (* 2.0 |v14:3|)))
 (let ((?x2496 (* 6.0 |v17:0|)))
 (let ((?x1297 (+ (+ (+ (+ (* 3.0 |v13:4|) (* 6.0 |v1:16|)) (* 14.0 |v1:16|)) ?x2496) ?x3898)))
 (let ((?x7122 (- 17.0)))
 (let ((?x2987 (* ?x7122 |v17:0|)))
 (let ((?x1233 (* ?x4232 |v5:12|)))
 (let ((?x5553 (+ (+ (+ (* 6.0 |v12:5|) (* 16.0 |v0:17|)) (* 20.0 (rval2 |v9:8_st|))) (* ?x7091 |v15:2|))))
 (let (($x1603 (or (<= (+ (+ (+ ?x5553 ?x1233) ?x2987) (* ?x4232 |v17:0|)) 3.0) (<= (+ (+ ?x1297 ?x9012) (* 12.0 |v17:0|)) ?x7878))))
 (let ((?x2271 (- 11.0)))
 (let ((?x2884 (* 9.0 |v14:3|)))
 (let ((?x5089 (* ?x7878 ?x9214)))
 (let ((?x6399 (+ (+ (+ (* 15.0 |v5:12|) (* (- 20.0) |v3:14|)) (* (- 14.0) |v16:1|)) ?x5089)))
 (let ((?x7284 (* 9.0 |v5:12|)))
 (let ((?x3237 (- 14.0)))
 (let ((?x6880 (* ?x3237 |v4:13|)))
 (let ((?x9081 (+ (+ (+ (+ (* 6.0 |v4:13|) (* (- 12.0) |v4:13|)) ?x9214) (* ?x2271 |v3:14|)) ?x6880)))
 (let (($x3857 (and (<= (+ (+ ?x9081 (* (- 2.0) |v15:2|)) ?x7284) 16.0) (<= (+ (+ (+ ?x6399 (* 17.0 ?x9214)) ?x2884) ?x2987) ?x2271))))
 (let ((?x7795 (* 11.0 |v4:13|)))
 (let ((?x782 (* 16.0 |v15:2|)))
 (let ((?x645 (* 4.0 |v13:4|)))
 (let ((?x694 (+ (+ (+ (* ?x7091 |v14:3|) (* (- 20.0) |v12:5|)) (* (- 19.0) |v1:16|)) (* (- 16.0) |v17:0|))))
 (let ((?x3684 (- 12.0)))
 (let ((?x7848 (+ (+ (+ (* ?x4592 ?x4383) (* ?x5786 ?x4383)) (* 7.0 |v17:0|)) (* 5.0 |v17:0|))))
 (let ((?x8509 (+ (+ (+ ?x7848 (* 18.0 ?x4383)) (* 12.0 (rval2 |v11:6_st|))) (* (- 20.0) (rval2 |v7:10_st|)))))
 (let ((?x212 (- 20.0)))
 (let ((?x464 (+ (+ (+ (+ (* (- 7.0) |v16:1|) ?x1508) (* ?x7876 |v12:5|)) ?x5405) (* ?x4232 (rval2 |v10:7_st|)))))
 (let ((?x7358 (rval2 |v9:8_st|)))
 (let ((?x7436 (* 5.0 ?x7358)))
 (let ((?x7849 (+ (+ (* 19.0 (rval2 |v11:6_st|)) (* 16.0 (rval2 |v10:7_st|))) (* (- 8.0) |v14:3|))))
 (let (($x9269 (<= (+ (+ (+ (+ ?x7849 (* ?x2271 ?x9214)) |v4:13|) ?x7436) (* (- 7.0) |v13:4|)) ?x4592)))
 (let (($x6455 (or $x9269 (<= (+ (+ ?x464 (* (- 16.0) ?x7358)) (* 3.0 |v17:0|)) ?x212))))
 (let (($x9309 (and $x6455 (and (<= ?x8509 ?x3684) (<= (+ (+ (+ ?x694 ?x645) ?x782) ?x7795) ?x3237)))))
 (let ((?x1739 (* 7.0 ?x4383)))
 (let ((?x1091 (+ (+ (+ (+ ?x8301 (* (- 19.0) |v15:2|)) (* (- 5.0) ?x7358)) ?x2845) (* 15.0 |v15:2|))))
 (let ((?x557 (* 17.0 |v0:17|)))
 (let ((?x6648 (* ?x5786 |v0:17|)))
 (let ((?x4682 (+ (+ (+ (* (- 5.0) ?x9214) (* ?x5786 |v12:5|)) (* (- 16.0) |v14:3|)) ?x6648)))
 (let (($x9147 (<= (+ (+ (+ ?x4682 (* 3.0 ?x4383)) (* (- 7.0) (rval2 |v11:6_st|))) ?x557) 19.0)))
 (let ((?x8162 (* 9.0 |v4:13|)))
 (let ((?x5373 (* ?x7878 |v5:12|)))
 (let ((?x7308 (* ?x7878 |v2:15|)))
 (let ((?x6152 (+ (+ (+ (+ (* 20.0 |v17:0|) (* 18.0 |v1:16|)) (* ?x7091 |v14:3|)) ?x7308) ?x9214)))
 (let ((?x4027 (* 4.0 |v1:16|)))
 (let ((?x958 (* 11.0 |v2:15|)))
 (let ((?x8866 (+ (+ (+ (* ?x212 |v15:2|) (* ?x212 |v2:15|)) (* 4.0 |v15:2|)) (* ?x4232 |v12:5|))))
 (let (($x9167 (and (<= (+ (+ (+ ?x8866 ?x958) ?x4027) (* ?x3684 |v16:1|)) 6.0) (<= (+ (+ ?x6152 ?x5373) ?x8162) 10.0))))
 (let (($x6702 (or $x9167 (or $x9147 (<= (+ (+ ?x1091 (* (- 19.0) ?x9214)) ?x1739) ?x7091)))))
 (let ((?x3704 (rval2 |v10:7_st|)))
 (let ((?x379 (* ?x7876 ?x3704)))
 (let ((?x6614 (+ (+ (+ (+ (* ?x3237 |v16:1|) (* ?x7122 ?x4383)) (* ?x7122 |v12:5|)) ?x1739) (* (- 2.0) |v17:0|))))
 (let ((?x9046 (- 19.0)))
 (let ((?x3729 (* ?x9046 |v0:17|)))
 (let ((?x1622 (+ (+ (+ (* ?x7878 |v15:2|) (* (- 1.0) |v12:5|)) (* ?x9046 |v12:5|)) (* ?x7878 |v16:1|))))
 (let (($x8419 (and (<= (+ (+ (+ ?x1622 ?x3729) (* 17.0 |v14:3|)) |v15:2|) ?x7091) (<= (+ (+ ?x6614 (* 19.0 |v17:0|)) ?x379) 10.0))))
 (let ((?x1927 (- 16.0)))
 (let ((?x5571 (* ?x1927 |v4:13|)))
 (let ((?x2502 (+ (+ (+ (* ?x7122 |v3:14|) (* ?x4232 |v2:15|)) (* ?x1927 ?x9214)) (* 18.0 |v14:3|))))
 (let (($x6708 (<= (+ (+ (+ ?x2502 (* ?x7091 |v17:0|)) (* 5.0 (rval2 |v7:10_st|))) ?x5571) ?x7878)))
 (let ((?x5662 (* 17.0 |v3:14|)))
 (let ((?x3796 (* 19.0 |v2:15|)))
 (let ((?x8236 (+ (+ (+ ?x5089 (* 4.0 ?x7358)) (* 7.0 ?x3704)) (* (- 8.0) ?x3704))))
 (let (($x7890 (or (or (<= (+ (+ (+ ?x8236 ?x3796) (* ?x3237 ?x9214)) ?x5662) 6.0) $x6708) $x8419)))
 (let ((?x2088 (* 3.0 |v2:15|)))
 (let ((?x3558 (- 8.0)))
 (let ((?x1546 (* ?x3558 |v5:12|)))
 (let ((?x4414 (* 7.0 ?x3704)))
 (let ((?x3393 (+ (+ (+ (+ (* ?x4592 |v12:5|) (* ?x7091 |v5:12|)) (* ?x4592 |v5:12|)) ?x4414) (* 12.0 ?x4383))))
 (let ((?x4472 (* ?x7925 |v3:14|)))
 (let ((?x3942 (+ (+ (+ (+ (* 19.0 |v14:3|) (* (- 2.0) ?x9214)) (rval2 |v11:6_st|)) ?x3040) (* 7.0 (rval2 |v7:10_st|)))))
 (let (($x584 (or (<= (+ (+ ?x3942 ?x4472) (* (- 10.0) (rval2 |v7:10_st|))) 18.0) (<= (+ (+ ?x3393 ?x1546) ?x2088) 19.0))))
 (let ((?x9308 (- 1.0)))
 (let ((?x943 (* ?x2271 ?x3704)))
 (let ((?x1831 (+ (+ (+ (+ |v4:13| (* ?x1927 |v2:15|)) (* ?x3558 |v17:0|)) (* 2.0 |v13:4|)) (* ?x5786 ?x9214))))
 (let ((?x5969 (+ (+ (+ (+ (* 12.0 |v2:15|) (* ?x3237 |v2:15|)) (* (- 5.0) |v5:12|)) ?x4670) (* 6.0 |v16:1|))))
 (let (($x7588 (and (<= (+ (+ ?x5969 ?x3704) (* 9.0 |v16:1|)) 8.0) (<= (+ (+ ?x1831 (* ?x7876 |v15:2|)) ?x943) ?x9308))))
 (let ((?x6574 (* 8.0 |v13:4|)))
 (let ((?x2899 (* 11.0 |v0:17|)))
 (let ((?x4698 (* ?x9308 |v1:16|)))
 (let ((?x7805 (+ (+ (+ (+ (* ?x4232 |v15:2|) (* ?x9308 |v0:17|)) (* 2.0 |v2:15|)) ?x4698) (* ?x3684 ?x9214))))
 (let ((?x6619 (+ (+ (+ ?x379 (* ?x4592 (rval2 |v11:6_st|))) (* ?x7091 |v12:5|)) (* ?x4232 (rval2 |v7:10_st|)))))
 (let (($x2278 (<= (+ (+ (+ ?x6619 (* ?x1927 (rval2 |v11:6_st|))) (* ?x2271 ?x7358)) (* ?x7091 |v13:4|)) 16.0)))
 (let ((?x5967 (- 10.0)))
 (let ((?x5806 (* ?x5967 |v3:14|)))
 (let ((?x5549 (* ?x9046 |v3:14|)))
 (let ((?x5807 (+ (+ (+ (+ (* 2.0 |v16:1|) (* ?x3237 |v0:17|)) (* 12.0 |v16:1|)) ?x5549) |v2:15|)))
 (let ((?x2201 (* ?x9046 |v4:13|)))
 (let ((?x8934 (* ?x7878 |v1:16|)))
 (let ((?x5789 (+ (+ (+ (* (- 5.0) ?x9214) (* 19.0 (rval2 |v7:10_st|))) (* ?x1927 |v13:4|)) ?x8934)))
 (let (($x2139 (<= (+ (+ (+ ?x5789 (* (- 2.0) |v16:1|)) (* 16.0 ?x4383)) ?x2201) 0.0)))
 (let ((?x5317 (* 11.0 |v15:2|)))
 (let ((?x8096 (* 13.0 |v1:16|)))
 (let ((?x4442 (* 9.0 ?x9214)))
 (let ((?x8653 (+ (+ (+ (* ?x7091 (rval2 |v11:6_st|)) (* ?x7925 (rval2 |v7:10_st|))) (* ?x5786 ?x3704)) ?x4442)))
 (let (($x1839 (and (and (<= (+ (+ (+ ?x8653 ?x8096) ?x4488) ?x5317) 6.0) $x2139) (and (<= (+ (+ ?x5807 (* ?x7878 |v12:5|)) ?x5806) ?x9308) $x2278))))
 (let (($x3195 (or (or $x1839 (<= (+ (+ ?x7805 ?x2899) ?x6574) 6.0)) (or (and $x7588 $x584) $x7890))))
 (let (($x3575 (and $x3195 (and (or $x6702 $x9309) (and (and $x3857 $x1603) (or $x2038 $x7934))))))
 (let (($x1179 (and (or $x3575 (<= (+ (+ (+ ?x1761 ?x5045) (* ?x7876 |v17:0|)) ?x2845) 14.0)) (<= ?x638 7.0))))
 (let (($x4184 (not (= |v6:11_st| (RMk1 val!10121)))))
 (let (($x3947 (not (= |v7:10_st| (RMk1 val!10120)))))
 (let (($x3746 (not (= |v8:9_st| (RMk1 val!10119)))))
 (let (($x3505 (not (= |v9:8_st| (RMk1 val!10118)))))
 (let (($x1202 (not (= |v10:7_st| (RMk1 val!10117)))))
 (let (($x2351 (not (= |v11:6_st| (RMk1 val!10116)))))
 (and $x2351 $x1202 $x3505 $x3746 $x3947 $x4184 $x1179)))))))))))))))))))))))))))))))))))))))))))))))))))))))))))))))))))))))))))))))))))))))))))))))))))))))))))))))))))))))))))))))))))))))))))
 )
 )
 )
 )
 )
 )
 )
 )
 )
 )
 )
 )
 )
 )
 )
 )
 )
 )
(check-sat)
